language Essence 1.3

letting class be function(1 --> 1, 2 --> 1, 3 --> 2, 4 --> 1, 5 --> 2, 6 --> 1, 7 --> 3, 8 --> 3)
letting deck_length be 54
letting deck_width be 86
letting length be function(1 --> 39, 2 --> 50, 3 --> 45, 4 --> 15, 5 --> 12, 6 --> 40, 7 --> 43, 8 --> 51)
letting n_classes be 3
letting n_containers be 8
letting separation be function()
letting width be function(1 --> 1, 2 --> 13, 3 --> 20, 4 --> 2, 5 --> 1, 6 --> 2, 7 --> 1, 8 --> 40)
